100
1 17
14 0
9 24
18 8
2 14
5 45
1 27
1 41
15 42
7 36
11 4
2 3
12 32
1 16
18 45
7 26
11 38
9 12
7 49
15 44
3 11
2 33
13 14
1 11
13 18
7 44
2 7
17 9
3 41
9 28
16 35
10 42
8 6
0 42
4 48
6 5
10 29
10 0
6 1
13 48
9 23
4 4
16 40
6 26
11 8
4 39
6 23
17 38
18 32
9 41
13 15
19 8
4 30
17 6
13 36
1 45
4 22
17 23
17 12
6 40
1 36
15 17
15 24
11 2
1 24
6 30
7 41
7 37
17 37
13 33
5 9
9 8
1 38
2 46
0 41
2 5
10 9
4 37
8 33
15 41
2 0
11 36
14 20
16 21
8 49
8 34
1 34
13 49
18 38
0 38
7 17
8 43
7 21
10 17
9 16
15 1
0 49
19 6
18 3
4 8